JulietBench/Juliet_Based_Patch_Bench/FFmpeg/CWE-189-Numeric-Errors/CVE_2014_9604_3881606240953b9275a247a1c98a567f3c44890f/solverrestore_median_Snippet.smt2
; benchmark generated from python API
(set-info :status unknown)
(declare-fun R () (_ BitVec 32))
(declare-fun rsi () (_ BitVec 64))
(declare-fun rdi () (_ BitVec 64))
(assert
 (let (($x18 (= (_ bv0 32) R)))
 (let ((?x8 ((_ extract 31 0) rsi)))
 (let ((?x6 ((_ extract 31 0) rdi)))
 (let ((?x28 (bvashr ?x6 (_ bv31 32))))
 (let ((?x29 (concat ?x28 ?x6)))
 (let ((?x41 (bvsdiv ?x29 (_ bv2 64))))
 (let ((?x42 ((_ extract 31 0) ?x41)))
 (let ((?x43 (bvnot ?x42)))
 (let ((?x44 (bvor ?x43 ?x8)))
 (let ((?x45 (bvnot ?x44)))
 (let (($x40 (= (_ bv0 32) ?x45)))
 (let ((?x586 (bvmul (_ bv4294967295 32) ?x45)))
 (let ((?x47 (bvmul (_ bv2 32) ?x6)))
 (let ((?x48 (bvashr ?x47 (_ bv31 32))))
 (let ((?x49 (concat ?x48 ?x47)))
 (let ((?x358 (bvsdiv ?x49 (_ bv2 64))))
 (let ((?x539 ((_ extract 31 0) ?x358)))
 (let ((?x536 (bvnot ?x539)))
 (let ((?x537 (bvor ?x536 ?x8)))
 (let ((?x541 (bvnot ?x537)))
 (let ((?x579 (bvadd ?x541 ?x586)))
 (let (($x464 (= (_ bv0 32) ?x579)))
 (let (($x25 (and $x464 $x40 $x18)))
 (let ((?x88 ((_ extract 7 0) rsi)))
 (let ((?x81 ((_ extract 7 0) ?x41)))
 (let ((?x82 (bvnot ?x81)))
 (let ((?x83 (bvor ?x82 ?x88)))
 (let ((?x79 (bvnot ?x83)))
 (let ((?x80 (bvmul (_ bv50 8) ?x79)))
 (let ((?x75 (bvadd (_ bv255 8) ?x80)))
 (let ((?x24 (concat (_ bv0 24) ?x75)))
 (let (($x67 (= R ?x24)))
 (let (($x31722 (and (distinct (_ bv0 32) ?x579) true)))
 (let (($x16 (and $x31722 $x40 $x67)))
 (let (($x13 (= (_ bv255 32) R)))
 (let (($x112 (and (distinct (_ bv0 32) ?x45) true)))
 (let (($x15 (and $x464 $x112 $x13)))
 (let (($x62 (and $x31722 $x112 $x67)))
 (let (($x19 (or $x62 $x15 $x16 $x25)))
 (let (($x27 (not $x19)))
 (let (($x26 (and (distinct R ?x24) true)))
 (let (($x38 (and $x26 $x27)))
 (let (($x20 (and $x67 $x19)))
 (let (($x507 (or $x20 $x38)))
 (not $x507))))))))))))))))))))))))))))))))))))))))))))))
(check-sat)
